Maximize
  - 3.939849170851 edge_0_1_0_0 - 1.2141116712732 edge_0_2_0_0
   - 4.2601976666984 edge_0_3_0_0 - 3.6759835188711 edge_0_4_0_0
   - 1.4224770373476 edge_0_5_0_0 - 5.588013395579599 edge_0_6_0_0
   - 4.936808802441599 edge_0_7_0_0 - 4.98001385479 edge_0_8_0_0
   - 4.955668573903501 edge_0_9_0_0 - 4.7677627775986 edge_0_10_0_0
   - 4.1264333819874 edge_0_11_0_0 - 2.87644728025 edge_0_12_0_0
   - 3.306049221656 edge_0_13_0_0 - 1.2154629873535 edge_0_15_0_0
   - 0.4909393076493 edge_0_16_0_0 + 0.9373738321469893 edge_1_2_0_0
   + 0.2574291468669849 edge_1_4_0_0 - 0.4510182138867722 edge_1_6_0_0
   + 0.1097071944335292 edge_1_8_0_0 + 2.226632245040987 edge_2_1_0_0
   + 0.9870023871644859 edge_2_3_0_0 + 3.149426246276402 edge_2_4_0_0
   + 1.482988486273652 edge_2_6_0_0 + 1.985394444389695 edge_2_7_0_0
   + 1.962696158913116 edge_2_8_0_0 + 2.577770301835928 edge_2_9_0_0
   - 0.3848028009670849 edge_2_10_0_0 + 1.797886506152808 edge_2_11_0_0
   - 0.00766319185051862 edge_2_12_0_0 + 0.00468989296139308 edge_2_13_0_0
   - 0.4897807273518275 edge_2_14_0_0 + 0.068370669187524 edge_2_16_0_0
   - 0.8173253479403088 edge_3_1_0_0 + 0.456601576536575 edge_3_4_0_0
   + 0.4578552483001759 edge_3_5_0_0 - 0.1685188292295987 edge_3_6_0_0
   - 0.1105634764600824 edge_3_8_0_0 - 0.0718390184040117 edge_3_9_0_0
   + 0.6064996089622989 edge_3_11_0_0 - 0.2330330935307683 edge_3_12_0_0
   - 0.5433360312486791 edge_3_13_0_0 - 0.0920451802145387 edge_3_15_0_0
   - 0.0177328359705364 edge_3_16_0_0 + 0.3878591578952622 edge_3_17_0_0
   + 0.1420886706855143 edge_4_1_0_0 + 0.2157569926382168 edge_4_2_0_0
   + 3.929064342332507 edge_4_3_0_0 + 2.30606346539579 edge_4_5_0_0
   + 1.210967718999987 edge_4_6_0_0 + 0.8317889388225097 edge_4_7_0_0
   + 1.126891536994371 edge_4_8_0_0 + 1.618840413033598 edge_4_9_0_0
   + 0.2082643617520687 edge_4_10_0_0 + 0.8832963839861906 edge_4_11_0_0
   - 0.5908730771195996 edge_4_12_0_0 + 0.1786303568648207 edge_4_13_0_0
   - 0.6392454218073758 edge_4_14_0_0 + 0.1953719149666195 edge_4_16_0_0
   + 3.364142397021 edge_4_17_0_0 + 1.255627818584224 edge_5_3_0_0
   + 1.996601583630223 edge_5_4_0_0 + 0.5209683677842761 edge_5_6_0_0
   + 2.145569648994418 edge_5_7_0_0 + 1.71889609578312 edge_5_8_0_0
   + 2.598727287719114 edge_5_9_0_0 - 0.6827456264904587 edge_5_10_0_0
   + 1.109923037225396 edge_5_11_0_0 - 1.490146500655876 edge_5_12_0_0
   + 0.06804644561485 edge_5_13_0_0 - 0.0712192684152768 edge_5_15_0_0
   + 1.298875626301457 edge_5_16_0_0 + 3.737755703376 edge_5_17_0_0
   - 0.4935888921591688 edge_6_1_0_0 + 0.0606453040004493 edge_6_2_0_0
   + 0.4319180548128277 edge_6_3_0_0 + 0.6261381624649496 edge_6_4_0_0
   - 0.1092208681768969 edge_6_5_0_0 + 0.5060175328787391 edge_6_7_0_0
   + 0.792673382681228 edge_6_8_0_0 + 0.6140581802190355 edge_6_9_0_0
   - 0.7647263743665862 edge_6_10_0_0 + 0.1797505856890131 edge_6_11_0_0
   - 0.2338817419227526 edge_6_13_0_0 - 2.642428549804273 edge_6_14_0_0
   - 0.2475700420513069 edge_6_16_0_0 - 0.085584386220266 edge_6_17_0_0
   - 0.1157250939268772 edge_7_1_0_0 + 0.1847724646374528 edge_7_2_0_0
   + 0.2411945068530004 edge_7_3_0_0 + 0.2275020535036014 edge_7_4_0_0
   + 0.4786941156341041 edge_7_5_0_0 + 3.157708058244541 edge_7_6_0_0
   + 1.203503581797024 edge_7_8_0_0 + 1.286112400792369 edge_7_9_0_0
   + 0.5433245268302906 edge_7_10_0_0 + 0.2081709372438201 edge_7_11_0_0
   - 0.6403974673610368 edge_7_12_0_0 - 0.5473388562052386 edge_7_13_0_0
   - 0.3615279383956916 edge_7_14_0_0 - 1.134021215477383 edge_7_16_0_0
   + 0.9987573324761601 edge_7_17_0_0 - 1.20690093612022 edge_8_4_0_0
   - 0.9088458915631192 edge_8_5_0_0 - 0.2975579561454487 edge_8_6_0_0
   + 0.130392878104196 edge_8_7_0_0 + 0.2265532259344894 edge_8_9_0_0
   - 0.1887526628439776 edge_8_10_0_0 - 0.1691485648070926 edge_8_11_0_0
   - 1.840499975675654 edge_9_4_0_0 - 0.889968027363719 edge_9_6_0_0
   - 0.7952871819480092 edge_9_7_0_0 - 0.0152609698073407 edge_9_8_0_0
   + 0.0501267107762748 edge_9_10_0_0 - 0.0977842159894499 edge_9_11_0_0
   - 0.7975284712116001 edge_9_17_0_0 - 0.6707339058835093 edge_10_2_0_0
   - 1.595813718838245 edge_10_4_0_0 - 0.8157761120726751 edge_10_5_0_0
   - 0.27279327129034 edge_10_6_0_0 - 0.7106455678297148 edge_10_7_0_0
   - 0.1541411038473796 edge_10_8_0_0 + 0.046995908984217 edge_10_9_0_0
   + 1.025474231804002 edge_10_11_0_0 + 0.5117386874137877 edge_10_12_0_0
   + 0.625404434421 edge_10_13_0_0 - 0.1727945297896497 edge_10_16_0_0
   + 0.13853549682739 edge_10_17_0_0 - 1.962740924598145 edge_11_1_0_0
   - 0.9629288073767396 edge_11_2_0_0 - 0.1542321695911245 edge_11_3_0_0
   - 7.0719084479801671e-04 edge_11_4_0_0
   - 0.0877275378879844 edge_11_5_0_0 + 0.7290615373142479 edge_11_6_0_0
   + 0.6454383610098435 edge_11_7_0_0 + 0.2281208801209018 edge_11_8_0_0
   + 0.3241862339824457 edge_11_9_0_0 + 3.184054361087509 edge_11_10_0_0
   + 0.1477281146652385 edge_11_11_0_0 + 0.6486198553511771 edge_11_12_0_0
   + 3.0797227555389 edge_11_13_0_0 + 0.1867611724011173 edge_11_14_0_0
   + 0.0290069400918752 edge_11_15_0_0 + 1.710697758827004 edge_11_16_0_0
   + 2.2807422701712 edge_11_17_0_0 - 0.9217235967727168 edge_12_2_0_0
   - 0.9060743555881033 edge_12_6_0_0 - 0.4899882455731468 edge_12_7_0_0
   - 0.1190537083644023 edge_12_8_0_0 - 0.1683080590107567 edge_12_10_0_0
   + 0.5633038548594841 edge_12_11_0_0 + 0.8022046130063663 edge_12_13_0_0
   - 0.3272378002596888 edge_12_14_0_0 + 0.0230062718471893 edge_12_15_0_0
   + 0.2771766338530916 edge_12_16_0_0 - 0.8586119429391262 edge_13_1_0_0
   - 1.328002879501701 edge_13_2_0_0 + 0.0654919047650118 edge_13_3_0_0
   - 0.8185201501402799 edge_13_4_0_0 + 0.5393434229155942 edge_13_5_0_0
   - 0.1318305353502777 edge_13_6_0_0 - 0.33223828102464 edge_13_7_0_0
   + 0.2307438636924624 edge_13_8_0_0 + 0.1383463477845859 edge_13_9_0_0
   + 1.4453467111122 edge_13_10_0_0 + 1.507775741036824 edge_13_11_0_0
   + 2.9917436877548 edge_13_12_0_0 + 0.2912787943074838 edge_13_14_0_0
   + 0.2089439714576378 edge_13_15_0_0 + 1.8625634602896 edge_13_16_0_0
   + 1.758750955046535 edge_13_17_0_0 + 0.3109922636240527 edge_14_12_0_0
   + 0.2815337246027274 edge_14_15_0_0 + 0.7751639235060055 edge_14_16_0_0
   - 0.338658756501 edge_14_17_0_0 - 0.00991575673115869 edge_15_8_0_0
   + 0.016327298584537 edge_15_11_0_0 + 0.060265828899278 edge_15_12_0_0
   + 0.0683114188013785 edge_15_13_0_0 + 0.1822707476396236 edge_15_14_0_0
   + 0.1660109847837689 edge_15_16_0_0 + 0.1390803118686033 edge_16_3_0_0
   - 0.027191588501028 edge_16_4_0_0 + 0.4283071550859037 edge_16_5_0_0
   - 2.334389801288286 edge_16_6_0_0 - 0.9926730108247465 edge_16_7_0_0
   + 0.3612527360852026 edge_16_8_0_0 + 0.6019296423805705 edge_16_10_0_0
   + 0.1114877501768854 edge_16_11_0_0 + 0.948061636819294 edge_16_12_0_0
   + 0.4929482001179787 edge_16_13_0_0 + 3.195222493089502 edge_16_14_0_0
   + 3.310000838905102 edge_16_15_0_0 - 0.2287288121193759 edge_16_16_0_0
   + 1.062599486208277 edge_16_17_0_0 - 0.9292331413887553 edge_17_16_0_0
Subject To
 one_parent_1: edge_0_1_0_0 + edge_2_1_0_0 + edge_3_1_0_0 + edge_4_1_0_0
   + edge_6_1_0_0 + edge_7_1_0_0 + edge_11_1_0_0 + edge_13_1_0_0 = 1
 consume_one_flow_unit_1: flow_0_1_0_0 - flow_1_2_0_0 - flow_1_4_0_0
   - flow_1_6_0_0 - flow_1_8_0_0 + flow_2_1_0_0 + flow_3_1_0_0
   + flow_4_1_0_0 + flow_6_1_0_0 + flow_7_1_0_0 + flow_11_1_0_0
   + flow_13_1_0_0 = 1
 one_parent_2: edge_0_2_0_0 + edge_1_2_0_0 + edge_4_2_0_0 + edge_6_2_0_0
   + edge_7_2_0_0 + edge_10_2_0_0 + edge_11_2_0_0 + edge_12_2_0_0
   + edge_13_2_0_0 = 1
 consume_one_flow_unit_2: flow_0_2_0_0 + flow_1_2_0_0 - flow_2_1_0_0
   - flow_2_3_0_0 - flow_2_4_0_0 - flow_2_6_0_0 - flow_2_7_0_0
   - flow_2_8_0_0 - flow_2_9_0_0 - flow_2_10_0_0 - flow_2_11_0_0
   - flow_2_12_0_0 - flow_2_13_0_0 - flow_2_14_0_0 - flow_2_16_0_0
   + flow_4_2_0_0 + flow_6_2_0_0 + flow_7_2_0_0 + flow_10_2_0_0
   + flow_11_2_0_0 + flow_12_2_0_0 + flow_13_2_0_0 = 1
 one_parent_3: edge_0_3_0_0 + edge_2_3_0_0 + edge_4_3_0_0 + edge_5_3_0_0
   + edge_6_3_0_0 + edge_7_3_0_0 + edge_11_3_0_0 + edge_13_3_0_0
   + edge_16_3_0_0 = 1
 consume_one_flow_unit_3: flow_0_3_0_0 + flow_2_3_0_0 - flow_3_1_0_0
   - flow_3_4_0_0 - flow_3_5_0_0 - flow_3_6_0_0 - flow_3_8_0_0
   - flow_3_9_0_0 - flow_3_11_0_0 - flow_3_12_0_0 - flow_3_13_0_0
   - flow_3_15_0_0 - flow_3_16_0_0 - flow_3_17_0_0 + flow_4_3_0_0
   + flow_5_3_0_0 + flow_6_3_0_0 + flow_7_3_0_0 + flow_11_3_0_0
   + flow_13_3_0_0 + flow_16_3_0_0 = 1
 one_parent_4: edge_0_4_0_0 + edge_1_4_0_0 + edge_2_4_0_0 + edge_3_4_0_0
   + edge_5_4_0_0 + edge_6_4_0_0 + edge_7_4_0_0 + edge_8_4_0_0
   + edge_9_4_0_0 + edge_10_4_0_0 + edge_11_4_0_0 + edge_13_4_0_0
   + edge_16_4_0_0 = 1
 consume_one_flow_unit_4: flow_0_4_0_0 + flow_1_4_0_0 + flow_2_4_0_0
   + flow_3_4_0_0 - flow_4_1_0_0 - flow_4_2_0_0 - flow_4_3_0_0
   - flow_4_5_0_0 - flow_4_6_0_0 - flow_4_7_0_0 - flow_4_8_0_0
   - flow_4_9_0_0 - flow_4_10_0_0 - flow_4_11_0_0 - flow_4_12_0_0
   - flow_4_13_0_0 - flow_4_14_0_0 - flow_4_16_0_0 - flow_4_17_0_0
   + flow_5_4_0_0 + flow_6_4_0_0 + flow_7_4_0_0 + flow_8_4_0_0
   + flow_9_4_0_0 + flow_10_4_0_0 + flow_11_4_0_0 + flow_13_4_0_0
   + flow_16_4_0_0 = 1
 one_parent_5: edge_0_5_0_0 + edge_3_5_0_0 + edge_4_5_0_0 + edge_6_5_0_0
   + edge_7_5_0_0 + edge_8_5_0_0 + edge_10_5_0_0 + edge_11_5_0_0
   + edge_13_5_0_0 + edge_16_5_0_0 = 1
 consume_one_flow_unit_5: flow_0_5_0_0 + flow_3_5_0_0 + flow_4_5_0_0
   - flow_5_3_0_0 - flow_5_4_0_0 - flow_5_6_0_0 - flow_5_7_0_0
   - flow_5_8_0_0 - flow_5_9_0_0 - flow_5_10_0_0 - flow_5_11_0_0
   - flow_5_12_0_0 - flow_5_13_0_0 - flow_5_15_0_0 - flow_5_16_0_0
   - flow_5_17_0_0 + flow_6_5_0_0 + flow_7_5_0_0 + flow_8_5_0_0
   + flow_10_5_0_0 + flow_11_5_0_0 + flow_13_5_0_0 + flow_16_5_0_0 = 1
 one_parent_6: edge_0_6_0_0 + edge_1_6_0_0 + edge_2_6_0_0 + edge_3_6_0_0
   + edge_4_6_0_0 + edge_5_6_0_0 + edge_7_6_0_0 + edge_8_6_0_0
   + edge_9_6_0_0 + edge_10_6_0_0 + edge_11_6_0_0 + edge_12_6_0_0
   + edge_13_6_0_0 + edge_16_6_0_0 = 1
 consume_one_flow_unit_6: flow_0_6_0_0 + flow_1_6_0_0 + flow_2_6_0_0
   + flow_3_6_0_0 + flow_4_6_0_0 + flow_5_6_0_0 - flow_6_1_0_0
   - flow_6_2_0_0 - flow_6_3_0_0 - flow_6_4_0_0 - flow_6_5_0_0
   - flow_6_7_0_0 - flow_6_8_0_0 - flow_6_9_0_0 - flow_6_10_0_0
   - flow_6_11_0_0 - flow_6_13_0_0 - flow_6_14_0_0 - flow_6_16_0_0
   - flow_6_17_0_0 + flow_7_6_0_0 + flow_8_6_0_0 + flow_9_6_0_0
   + flow_10_6_0_0 + flow_11_6_0_0 + flow_12_6_0_0 + flow_13_6_0_0
   + flow_16_6_0_0 = 1
 one_parent_7: edge_0_7_0_0 + edge_2_7_0_0 + edge_4_7_0_0 + edge_5_7_0_0
   + edge_6_7_0_0 + edge_8_7_0_0 + edge_9_7_0_0 + edge_10_7_0_0
   + edge_11_7_0_0 + edge_12_7_0_0 + edge_13_7_0_0 + edge_16_7_0_0 = 1
 consume_one_flow_unit_7: flow_0_7_0_0 + flow_2_7_0_0 + flow_4_7_0_0
   + flow_5_7_0_0 + flow_6_7_0_0 - flow_7_1_0_0 - flow_7_2_0_0
   - flow_7_3_0_0 - flow_7_4_0_0 - flow_7_5_0_0 - flow_7_6_0_0
   - flow_7_8_0_0 - flow_7_9_0_0 - flow_7_10_0_0 - flow_7_11_0_0
   - flow_7_12_0_0 - flow_7_13_0_0 - flow_7_14_0_0 - flow_7_16_0_0
   - flow_7_17_0_0 + flow_8_7_0_0 + flow_9_7_0_0 + flow_10_7_0_0
   + flow_11_7_0_0 + flow_12_7_0_0 + flow_13_7_0_0 + flow_16_7_0_0 = 1
 one_parent_8: edge_0_8_0_0 + edge_1_8_0_0 + edge_2_8_0_0 + edge_3_8_0_0
   + edge_4_8_0_0 + edge_5_8_0_0 + edge_6_8_0_0 + edge_7_8_0_0
   + edge_9_8_0_0 + edge_10_8_0_0 + edge_11_8_0_0 + edge_12_8_0_0
   + edge_13_8_0_0 + edge_15_8_0_0 + edge_16_8_0_0 = 1
 consume_one_flow_unit_8: flow_0_8_0_0 + flow_1_8_0_0 + flow_2_8_0_0
   + flow_3_8_0_0 + flow_4_8_0_0 + flow_5_8_0_0 + flow_6_8_0_0
   + flow_7_8_0_0 - flow_8_4_0_0 - flow_8_5_0_0 - flow_8_6_0_0
   - flow_8_7_0_0 - flow_8_9_0_0 - flow_8_10_0_0 - flow_8_11_0_0
   + flow_9_8_0_0 + flow_10_8_0_0 + flow_11_8_0_0 + flow_12_8_0_0
   + flow_13_8_0_0 + flow_15_8_0_0 + flow_16_8_0_0 = 1
 one_parent_9: edge_0_9_0_0 + edge_2_9_0_0 + edge_3_9_0_0 + edge_4_9_0_0
   + edge_5_9_0_0 + edge_6_9_0_0 + edge_7_9_0_0 + edge_8_9_0_0
   + edge_10_9_0_0 + edge_11_9_0_0 + edge_13_9_0_0 = 1
 consume_one_flow_unit_9: flow_0_9_0_0 + flow_2_9_0_0 + flow_3_9_0_0
   + flow_4_9_0_0 + flow_5_9_0_0 + flow_6_9_0_0 + flow_7_9_0_0
   + flow_8_9_0_0 - flow_9_4_0_0 - flow_9_6_0_0 - flow_9_7_0_0
   - flow_9_8_0_0 - flow_9_10_0_0 - flow_9_11_0_0 - flow_9_17_0_0
   + flow_10_9_0_0 + flow_11_9_0_0 + flow_13_9_0_0 = 1
 one_parent_10: edge_0_10_0_0 + edge_2_10_0_0 + edge_4_10_0_0
   + edge_5_10_0_0 + edge_6_10_0_0 + edge_7_10_0_0 + edge_8_10_0_0
   + edge_9_10_0_0 + edge_11_10_0_0 + edge_12_10_0_0 + edge_13_10_0_0
   + edge_16_10_0_0 = 1
 consume_one_flow_unit_10: flow_0_10_0_0 + flow_2_10_0_0 + flow_4_10_0_0
   + flow_5_10_0_0 + flow_6_10_0_0 + flow_7_10_0_0 + flow_8_10_0_0
   + flow_9_10_0_0 - flow_10_2_0_0 - flow_10_4_0_0 - flow_10_5_0_0
   - flow_10_6_0_0 - flow_10_7_0_0 - flow_10_8_0_0 - flow_10_9_0_0
   - flow_10_11_0_0 - flow_10_12_0_0 - flow_10_13_0_0 - flow_10_16_0_0
   - flow_10_17_0_0 + flow_11_10_0_0 + flow_12_10_0_0 + flow_13_10_0_0
   + flow_16_10_0_0 = 1
 one_parent_11: edge_0_11_0_0 + edge_2_11_0_0 + edge_3_11_0_0
   + edge_4_11_0_0 + edge_5_11_0_0 + edge_6_11_0_0 + edge_7_11_0_0
   + edge_8_11_0_0 + edge_9_11_0_0 + edge_10_11_0_0 + edge_11_11_0_0
   + edge_12_11_0_0 + edge_13_11_0_0 + edge_15_11_0_0 + edge_16_11_0_0 = 1
 consume_one_flow_unit_11: flow_0_11_0_0 + flow_2_11_0_0 + flow_3_11_0_0
   + flow_4_11_0_0 + flow_5_11_0_0 + flow_6_11_0_0 + flow_7_11_0_0
   + flow_8_11_0_0 + flow_9_11_0_0 + flow_10_11_0_0 - flow_11_1_0_0
   - flow_11_2_0_0 - flow_11_3_0_0 - flow_11_4_0_0 - flow_11_5_0_0
   - flow_11_6_0_0 - flow_11_7_0_0 - flow_11_8_0_0 - flow_11_9_0_0
   - flow_11_10_0_0 - flow_11_12_0_0 - flow_11_13_0_0 - flow_11_14_0_0
   - flow_11_15_0_0 - flow_11_16_0_0 - flow_11_17_0_0 + flow_12_11_0_0
   + flow_13_11_0_0 + flow_15_11_0_0 + flow_16_11_0_0 = 1
 one_parent_12: edge_0_12_0_0 + edge_2_12_0_0 + edge_3_12_0_0
   + edge_4_12_0_0 + edge_5_12_0_0 + edge_7_12_0_0 + edge_10_12_0_0
   + edge_11_12_0_0 + edge_13_12_0_0 + edge_14_12_0_0 + edge_15_12_0_0
   + edge_16_12_0_0 = 1
 consume_one_flow_unit_12: flow_0_12_0_0 + flow_2_12_0_0 + flow_3_12_0_0
   + flow_4_12_0_0 + flow_5_12_0_0 + flow_7_12_0_0 + flow_10_12_0_0
   + flow_11_12_0_0 - flow_12_2_0_0 - flow_12_6_0_0 - flow_12_7_0_0
   - flow_12_8_0_0 - flow_12_10_0_0 - flow_12_11_0_0 - flow_12_13_0_0
   - flow_12_14_0_0 - flow_12_15_0_0 - flow_12_16_0_0 + flow_13_12_0_0
   + flow_14_12_0_0 + flow_15_12_0_0 + flow_16_12_0_0 = 1
 one_parent_13: edge_0_13_0_0 + edge_2_13_0_0 + edge_3_13_0_0
   + edge_4_13_0_0 + edge_5_13_0_0 + edge_6_13_0_0 + edge_7_13_0_0
   + edge_10_13_0_0 + edge_11_13_0_0 + edge_12_13_0_0 + edge_15_13_0_0
   + edge_16_13_0_0 = 1
 consume_one_flow_unit_13: flow_0_13_0_0 + flow_2_13_0_0 + flow_3_13_0_0
   + flow_4_13_0_0 + flow_5_13_0_0 + flow_6_13_0_0 + flow_7_13_0_0
   + flow_10_13_0_0 + flow_11_13_0_0 + flow_12_13_0_0 - flow_13_1_0_0
   - flow_13_2_0_0 - flow_13_3_0_0 - flow_13_4_0_0 - flow_13_5_0_0
   - flow_13_6_0_0 - flow_13_7_0_0 - flow_13_8_0_0 - flow_13_9_0_0
   - flow_13_10_0_0 - flow_13_11_0_0 - flow_13_12_0_0 - flow_13_14_0_0
   - flow_13_15_0_0 - flow_13_16_0_0 - flow_13_17_0_0 + flow_15_13_0_0
   + flow_16_13_0_0 = 1
 one_parent_14: edge_2_14_0_0 + edge_4_14_0_0 + edge_6_14_0_0
   + edge_7_14_0_0 + edge_11_14_0_0 + edge_12_14_0_0 + edge_13_14_0_0
   + edge_15_14_0_0 + edge_16_14_0_0 = 1
 consume_one_flow_unit_14: flow_2_14_0_0 + flow_4_14_0_0 + flow_6_14_0_0
   + flow_7_14_0_0 + flow_11_14_0_0 + flow_12_14_0_0 + flow_13_14_0_0
   - flow_14_12_0_0 - flow_14_15_0_0 - flow_14_16_0_0 - flow_14_17_0_0
   + flow_15_14_0_0 + flow_16_14_0_0 = 1
 one_parent_15: edge_0_15_0_0 + edge_3_15_0_0 + edge_5_15_0_0
   + edge_11_15_0_0 + edge_12_15_0_0 + edge_13_15_0_0 + edge_14_15_0_0
   + edge_16_15_0_0 = 1
 consume_one_flow_unit_15: flow_0_15_0_0 + flow_3_15_0_0 + flow_5_15_0_0
   + flow_11_15_0_0 + flow_12_15_0_0 + flow_13_15_0_0 + flow_14_15_0_0
   - flow_15_8_0_0 - flow_15_11_0_0 - flow_15_12_0_0 - flow_15_13_0_0
   - flow_15_14_0_0 - flow_15_16_0_0 + flow_16_15_0_0 = 1
 one_parent_16: edge_0_16_0_0 + edge_2_16_0_0 + edge_3_16_0_0
   + edge_4_16_0_0 + edge_5_16_0_0 + edge_6_16_0_0 + edge_7_16_0_0
   + edge_10_16_0_0 + edge_11_16_0_0 + edge_12_16_0_0 + edge_13_16_0_0
   + edge_14_16_0_0 + edge_15_16_0_0 + edge_16_16_0_0 + edge_17_16_0_0 = 1
 consume_one_flow_unit_16: flow_0_16_0_0 + flow_2_16_0_0 + flow_3_16_0_0
   + flow_4_16_0_0 + flow_5_16_0_0 + flow_6_16_0_0 + flow_7_16_0_0
   + flow_10_16_0_0 + flow_11_16_0_0 + flow_12_16_0_0 + flow_13_16_0_0
   + flow_14_16_0_0 + flow_15_16_0_0 - flow_16_3_0_0 - flow_16_4_0_0
   - flow_16_5_0_0 - flow_16_6_0_0 - flow_16_7_0_0 - flow_16_8_0_0
   - flow_16_10_0_0 - flow_16_11_0_0 - flow_16_12_0_0 - flow_16_13_0_0
   - flow_16_14_0_0 - flow_16_15_0_0 - flow_16_17_0_0 + flow_17_16_0_0 = 1
 one_parent_17: edge_3_17_0_0 + edge_4_17_0_0 + edge_5_17_0_0
   + edge_6_17_0_0 + edge_7_17_0_0 + edge_9_17_0_0 + edge_10_17_0_0
   + edge_11_17_0_0 + edge_13_17_0_0 + edge_14_17_0_0 + edge_16_17_0_0 = 1
 consume_one_flow_unit_17: flow_3_17_0_0 + flow_4_17_0_0 + flow_5_17_0_0
   + flow_6_17_0_0 + flow_7_17_0_0 + flow_9_17_0_0 + flow_10_17_0_0
   + flow_11_17_0_0 + flow_13_17_0_0 + flow_14_17_0_0 + flow_16_17_0_0
   - flow_17_16_0_0 = 1
 root_flow: flow_0_1_0_0 + flow_0_2_0_0 + flow_0_3_0_0 + flow_0_4_0_0
   + flow_0_5_0_0 + flow_0_6_0_0 + flow_0_7_0_0 + flow_0_8_0_0
   + flow_0_9_0_0 + flow_0_10_0_0 + flow_0_11_0_0 + flow_0_12_0_0
   + flow_0_13_0_0 + flow_0_15_0_0 + flow_0_16_0_0 = 17
 inactive_no_flow_0_1_0_0: flow_0_1_0_0 - 1000 edge_0_1_0_0 <= 0
 inactive_no_flow_0_2_0_0: flow_0_2_0_0 - 1000 edge_0_2_0_0 <= 0
 inactive_no_flow_0_3_0_0: flow_0_3_0_0 - 1000 edge_0_3_0_0 <= 0
 inactive_no_flow_0_4_0_0: flow_0_4_0_0 - 1000 edge_0_4_0_0 <= 0
 inactive_no_flow_0_5_0_0: flow_0_5_0_0 - 1000 edge_0_5_0_0 <= 0
 inactive_no_flow_0_6_0_0: flow_0_6_0_0 - 1000 edge_0_6_0_0 <= 0
 inactive_no_flow_0_7_0_0: flow_0_7_0_0 - 1000 edge_0_7_0_0 <= 0
 inactive_no_flow_0_8_0_0: flow_0_8_0_0 - 1000 edge_0_8_0_0 <= 0
 inactive_no_flow_0_9_0_0: flow_0_9_0_0 - 1000 edge_0_9_0_0 <= 0
 inactive_no_flow_0_10_0_0: flow_0_10_0_0 - 1000 edge_0_10_0_0 <= 0
 inactive_no_flow_0_11_0_0: flow_0_11_0_0 - 1000 edge_0_11_0_0 <= 0
 inactive_no_flow_0_12_0_0: flow_0_12_0_0 - 1000 edge_0_12_0_0 <= 0
 inactive_no_flow_0_13_0_0: flow_0_13_0_0 - 1000 edge_0_13_0_0 <= 0
 inactive_no_flow_0_15_0_0: flow_0_15_0_0 - 1000 edge_0_15_0_0 <= 0
 inactive_no_flow_0_16_0_0: flow_0_16_0_0 - 1000 edge_0_16_0_0 <= 0
 inactive_no_flow_1_2_0_0: flow_1_2_0_0 - 1000 edge_1_2_0_0 <= 0
 inactive_no_flow_1_4_0_0: flow_1_4_0_0 - 1000 edge_1_4_0_0 <= 0
 inactive_no_flow_1_6_0_0: flow_1_6_0_0 - 1000 edge_1_6_0_0 <= 0
 inactive_no_flow_1_8_0_0: flow_1_8_0_0 - 1000 edge_1_8_0_0 <= 0
 inactive_no_flow_2_1_0_0: flow_2_1_0_0 - 1000 edge_2_1_0_0 <= 0
 inactive_no_flow_2_3_0_0: flow_2_3_0_0 - 1000 edge_2_3_0_0 <= 0
 inactive_no_flow_2_4_0_0: flow_2_4_0_0 - 1000 edge_2_4_0_0 <= 0
 inactive_no_flow_2_6_0_0: flow_2_6_0_0 - 1000 edge_2_6_0_0 <= 0
 inactive_no_flow_2_7_0_0: flow_2_7_0_0 - 1000 edge_2_7_0_0 <= 0
 inactive_no_flow_2_8_0_0: flow_2_8_0_0 - 1000 edge_2_8_0_0 <= 0
 inactive_no_flow_2_9_0_0: flow_2_9_0_0 - 1000 edge_2_9_0_0 <= 0
 inactive_no_flow_2_10_0_0: flow_2_10_0_0 - 1000 edge_2_10_0_0 <= 0
 inactive_no_flow_2_11_0_0: flow_2_11_0_0 - 1000 edge_2_11_0_0 <= 0
 inactive_no_flow_2_12_0_0: flow_2_12_0_0 - 1000 edge_2_12_0_0 <= 0
 inactive_no_flow_2_13_0_0: flow_2_13_0_0 - 1000 edge_2_13_0_0 <= 0
 inactive_no_flow_2_14_0_0: flow_2_14_0_0 - 1000 edge_2_14_0_0 <= 0
 inactive_no_flow_2_16_0_0: flow_2_16_0_0 - 1000 edge_2_16_0_0 <= 0
 inactive_no_flow_3_1_0_0: flow_3_1_0_0 - 1000 edge_3_1_0_0 <= 0
 inactive_no_flow_3_4_0_0: flow_3_4_0_0 - 1000 edge_3_4_0_0 <= 0
 inactive_no_flow_3_5_0_0: flow_3_5_0_0 - 1000 edge_3_5_0_0 <= 0
 inactive_no_flow_3_6_0_0: flow_3_6_0_0 - 1000 edge_3_6_0_0 <= 0
 inactive_no_flow_3_8_0_0: flow_3_8_0_0 - 1000 edge_3_8_0_0 <= 0
 inactive_no_flow_3_9_0_0: flow_3_9_0_0 - 1000 edge_3_9_0_0 <= 0
 inactive_no_flow_3_11_0_0: flow_3_11_0_0 - 1000 edge_3_11_0_0 <= 0
 inactive_no_flow_3_12_0_0: flow_3_12_0_0 - 1000 edge_3_12_0_0 <= 0
 inactive_no_flow_3_13_0_0: flow_3_13_0_0 - 1000 edge_3_13_0_0 <= 0
 inactive_no_flow_3_15_0_0: flow_3_15_0_0 - 1000 edge_3_15_0_0 <= 0
 inactive_no_flow_3_16_0_0: flow_3_16_0_0 - 1000 edge_3_16_0_0 <= 0
 inactive_no_flow_3_17_0_0: flow_3_17_0_0 - 1000 edge_3_17_0_0 <= 0
 inactive_no_flow_4_1_0_0: flow_4_1_0_0 - 1000 edge_4_1_0_0 <= 0
 inactive_no_flow_4_2_0_0: flow_4_2_0_0 - 1000 edge_4_2_0_0 <= 0
 inactive_no_flow_4_3_0_0: flow_4_3_0_0 - 1000 edge_4_3_0_0 <= 0
 inactive_no_flow_4_5_0_0: flow_4_5_0_0 - 1000 edge_4_5_0_0 <= 0
 inactive_no_flow_4_6_0_0: flow_4_6_0_0 - 1000 edge_4_6_0_0 <= 0
 inactive_no_flow_4_7_0_0: flow_4_7_0_0 - 1000 edge_4_7_0_0 <= 0
 inactive_no_flow_4_8_0_0: flow_4_8_0_0 - 1000 edge_4_8_0_0 <= 0
 inactive_no_flow_4_9_0_0: flow_4_9_0_0 - 1000 edge_4_9_0_0 <= 0
 inactive_no_flow_4_10_0_0: flow_4_10_0_0 - 1000 edge_4_10_0_0 <= 0
 inactive_no_flow_4_11_0_0: flow_4_11_0_0 - 1000 edge_4_11_0_0 <= 0
 inactive_no_flow_4_12_0_0: flow_4_12_0_0 - 1000 edge_4_12_0_0 <= 0
 inactive_no_flow_4_13_0_0: flow_4_13_0_0 - 1000 edge_4_13_0_0 <= 0
 inactive_no_flow_4_14_0_0: flow_4_14_0_0 - 1000 edge_4_14_0_0 <= 0
 inactive_no_flow_4_16_0_0: flow_4_16_0_0 - 1000 edge_4_16_0_0 <= 0
 inactive_no_flow_4_17_0_0: flow_4_17_0_0 - 1000 edge_4_17_0_0 <= 0
 inactive_no_flow_5_3_0_0: flow_5_3_0_0 - 1000 edge_5_3_0_0 <= 0
 inactive_no_flow_5_4_0_0: flow_5_4_0_0 - 1000 edge_5_4_0_0 <= 0
 inactive_no_flow_5_6_0_0: flow_5_6_0_0 - 1000 edge_5_6_0_0 <= 0
 inactive_no_flow_5_7_0_0: flow_5_7_0_0 - 1000 edge_5_7_0_0 <= 0
 inactive_no_flow_5_8_0_0: flow_5_8_0_0 - 1000 edge_5_8_0_0 <= 0
 inactive_no_flow_5_9_0_0: flow_5_9_0_0 - 1000 edge_5_9_0_0 <= 0
 inactive_no_flow_5_10_0_0: flow_5_10_0_0 - 1000 edge_5_10_0_0 <= 0
 inactive_no_flow_5_11_0_0: flow_5_11_0_0 - 1000 edge_5_11_0_0 <= 0
 inactive_no_flow_5_12_0_0: flow_5_12_0_0 - 1000 edge_5_12_0_0 <= 0
 inactive_no_flow_5_13_0_0: flow_5_13_0_0 - 1000 edge_5_13_0_0 <= 0
 inactive_no_flow_5_15_0_0: flow_5_15_0_0 - 1000 edge_5_15_0_0 <= 0
 inactive_no_flow_5_16_0_0: flow_5_16_0_0 - 1000 edge_5_16_0_0 <= 0
 inactive_no_flow_5_17_0_0: flow_5_17_0_0 - 1000 edge_5_17_0_0 <= 0
 inactive_no_flow_6_1_0_0: flow_6_1_0_0 - 1000 edge_6_1_0_0 <= 0
 inactive_no_flow_6_2_0_0: flow_6_2_0_0 - 1000 edge_6_2_0_0 <= 0
 inactive_no_flow_6_3_0_0: flow_6_3_0_0 - 1000 edge_6_3_0_0 <= 0
 inactive_no_flow_6_4_0_0: flow_6_4_0_0 - 1000 edge_6_4_0_0 <= 0
 inactive_no_flow_6_5_0_0: flow_6_5_0_0 - 1000 edge_6_5_0_0 <= 0
 inactive_no_flow_6_7_0_0: flow_6_7_0_0 - 1000 edge_6_7_0_0 <= 0
 inactive_no_flow_6_8_0_0: flow_6_8_0_0 - 1000 edge_6_8_0_0 <= 0
 inactive_no_flow_6_9_0_0: flow_6_9_0_0 - 1000 edge_6_9_0_0 <= 0
 inactive_no_flow_6_10_0_0: flow_6_10_0_0 - 1000 edge_6_10_0_0 <= 0
 inactive_no_flow_6_11_0_0: flow_6_11_0_0 - 1000 edge_6_11_0_0 <= 0
 inactive_no_flow_6_13_0_0: flow_6_13_0_0 - 1000 edge_6_13_0_0 <= 0
 inactive_no_flow_6_14_0_0: flow_6_14_0_0 - 1000 edge_6_14_0_0 <= 0
 inactive_no_flow_6_16_0_0: flow_6_16_0_0 - 1000 edge_6_16_0_0 <= 0
 inactive_no_flow_6_17_0_0: flow_6_17_0_0 - 1000 edge_6_17_0_0 <= 0
 inactive_no_flow_7_1_0_0: flow_7_1_0_0 - 1000 edge_7_1_0_0 <= 0
 inactive_no_flow_7_2_0_0: flow_7_2_0_0 - 1000 edge_7_2_0_0 <= 0
 inactive_no_flow_7_3_0_0: flow_7_3_0_0 - 1000 edge_7_3_0_0 <= 0
 inactive_no_flow_7_4_0_0: flow_7_4_0_0 - 1000 edge_7_4_0_0 <= 0
 inactive_no_flow_7_5_0_0: flow_7_5_0_0 - 1000 edge_7_5_0_0 <= 0
 inactive_no_flow_7_6_0_0: flow_7_6_0_0 - 1000 edge_7_6_0_0 <= 0
 inactive_no_flow_7_8_0_0: flow_7_8_0_0 - 1000 edge_7_8_0_0 <= 0
 inactive_no_flow_7_9_0_0: flow_7_9_0_0 - 1000 edge_7_9_0_0 <= 0
 inactive_no_flow_7_10_0_0: flow_7_10_0_0 - 1000 edge_7_10_0_0 <= 0
 inactive_no_flow_7_11_0_0: flow_7_11_0_0 - 1000 edge_7_11_0_0 <= 0
 inactive_no_flow_7_12_0_0: flow_7_12_0_0 - 1000 edge_7_12_0_0 <= 0
 inactive_no_flow_7_13_0_0: flow_7_13_0_0 - 1000 edge_7_13_0_0 <= 0
 inactive_no_flow_7_14_0_0: flow_7_14_0_0 - 1000 edge_7_14_0_0 <= 0
 inactive_no_flow_7_16_0_0: flow_7_16_0_0 - 1000 edge_7_16_0_0 <= 0
 inactive_no_flow_7_17_0_0: flow_7_17_0_0 - 1000 edge_7_17_0_0 <= 0
 inactive_no_flow_8_4_0_0: flow_8_4_0_0 - 1000 edge_8_4_0_0 <= 0
 inactive_no_flow_8_5_0_0: flow_8_5_0_0 - 1000 edge_8_5_0_0 <= 0
 inactive_no_flow_8_6_0_0: flow_8_6_0_0 - 1000 edge_8_6_0_0 <= 0
 inactive_no_flow_8_7_0_0: flow_8_7_0_0 - 1000 edge_8_7_0_0 <= 0
 inactive_no_flow_8_9_0_0: flow_8_9_0_0 - 1000 edge_8_9_0_0 <= 0
 inactive_no_flow_8_10_0_0: flow_8_10_0_0 - 1000 edge_8_10_0_0 <= 0
 inactive_no_flow_8_11_0_0: flow_8_11_0_0 - 1000 edge_8_11_0_0 <= 0
 inactive_no_flow_9_4_0_0: flow_9_4_0_0 - 1000 edge_9_4_0_0 <= 0
 inactive_no_flow_9_6_0_0: flow_9_6_0_0 - 1000 edge_9_6_0_0 <= 0
 inactive_no_flow_9_7_0_0: flow_9_7_0_0 - 1000 edge_9_7_0_0 <= 0
 inactive_no_flow_9_8_0_0: flow_9_8_0_0 - 1000 edge_9_8_0_0 <= 0
 inactive_no_flow_9_10_0_0: flow_9_10_0_0 - 1000 edge_9_10_0_0 <= 0
 inactive_no_flow_9_11_0_0: flow_9_11_0_0 - 1000 edge_9_11_0_0 <= 0
 inactive_no_flow_9_17_0_0: flow_9_17_0_0 - 1000 edge_9_17_0_0 <= 0
 inactive_no_flow_10_2_0_0: flow_10_2_0_0 - 1000 edge_10_2_0_0 <= 0
 inactive_no_flow_10_4_0_0: flow_10_4_0_0 - 1000 edge_10_4_0_0 <= 0
 inactive_no_flow_10_5_0_0: flow_10_5_0_0 - 1000 edge_10_5_0_0 <= 0
 inactive_no_flow_10_6_0_0: flow_10_6_0_0 - 1000 edge_10_6_0_0 <= 0
 inactive_no_flow_10_7_0_0: flow_10_7_0_0 - 1000 edge_10_7_0_0 <= 0
 inactive_no_flow_10_8_0_0: flow_10_8_0_0 - 1000 edge_10_8_0_0 <= 0
 inactive_no_flow_10_9_0_0: flow_10_9_0_0 - 1000 edge_10_9_0_0 <= 0
 inactive_no_flow_10_11_0_0: flow_10_11_0_0 - 1000 edge_10_11_0_0 <= 0
 inactive_no_flow_10_12_0_0: flow_10_12_0_0 - 1000 edge_10_12_0_0 <= 0
 inactive_no_flow_10_13_0_0: flow_10_13_0_0 - 1000 edge_10_13_0_0 <= 0
 inactive_no_flow_10_16_0_0: flow_10_16_0_0 - 1000 edge_10_16_0_0 <= 0
 inactive_no_flow_10_17_0_0: flow_10_17_0_0 - 1000 edge_10_17_0_0 <= 0
 inactive_no_flow_11_1_0_0: flow_11_1_0_0 - 1000 edge_11_1_0_0 <= 0
 inactive_no_flow_11_2_0_0: flow_11_2_0_0 - 1000 edge_11_2_0_0 <= 0
 inactive_no_flow_11_3_0_0: flow_11_3_0_0 - 1000 edge_11_3_0_0 <= 0
 inactive_no_flow_11_4_0_0: flow_11_4_0_0 - 1000 edge_11_4_0_0 <= 0
 inactive_no_flow_11_5_0_0: flow_11_5_0_0 - 1000 edge_11_5_0_0 <= 0
 inactive_no_flow_11_6_0_0: flow_11_6_0_0 - 1000 edge_11_6_0_0 <= 0
 inactive_no_flow_11_7_0_0: flow_11_7_0_0 - 1000 edge_11_7_0_0 <= 0
 inactive_no_flow_11_8_0_0: flow_11_8_0_0 - 1000 edge_11_8_0_0 <= 0
 inactive_no_flow_11_9_0_0: flow_11_9_0_0 - 1000 edge_11_9_0_0 <= 0
 inactive_no_flow_11_10_0_0: flow_11_10_0_0 - 1000 edge_11_10_0_0 <= 0
 inactive_no_flow_11_11_0_0: flow_11_11_0_0 - 1000 edge_11_11_0_0 <= 0
 inactive_no_flow_11_12_0_0: flow_11_12_0_0 - 1000 edge_11_12_0_0 <= 0
 inactive_no_flow_11_13_0_0: flow_11_13_0_0 - 1000 edge_11_13_0_0 <= 0
 inactive_no_flow_11_14_0_0: flow_11_14_0_0 - 1000 edge_11_14_0_0 <= 0
 inactive_no_flow_11_15_0_0: flow_11_15_0_0 - 1000 edge_11_15_0_0 <= 0
 inactive_no_flow_11_16_0_0: flow_11_16_0_0 - 1000 edge_11_16_0_0 <= 0
 inactive_no_flow_11_17_0_0: flow_11_17_0_0 - 1000 edge_11_17_0_0 <= 0
 inactive_no_flow_12_2_0_0: flow_12_2_0_0 - 1000 edge_12_2_0_0 <= 0
 inactive_no_flow_12_6_0_0: flow_12_6_0_0 - 1000 edge_12_6_0_0 <= 0
 inactive_no_flow_12_7_0_0: flow_12_7_0_0 - 1000 edge_12_7_0_0 <= 0
 inactive_no_flow_12_8_0_0: flow_12_8_0_0 - 1000 edge_12_8_0_0 <= 0
 inactive_no_flow_12_10_0_0: flow_12_10_0_0 - 1000 edge_12_10_0_0 <= 0
 inactive_no_flow_12_11_0_0: flow_12_11_0_0 - 1000 edge_12_11_0_0 <= 0
 inactive_no_flow_12_13_0_0: flow_12_13_0_0 - 1000 edge_12_13_0_0 <= 0
 inactive_no_flow_12_14_0_0: flow_12_14_0_0 - 1000 edge_12_14_0_0 <= 0
 inactive_no_flow_12_15_0_0: flow_12_15_0_0 - 1000 edge_12_15_0_0 <= 0
 inactive_no_flow_12_16_0_0: flow_12_16_0_0 - 1000 edge_12_16_0_0 <= 0
 inactive_no_flow_13_1_0_0: flow_13_1_0_0 - 1000 edge_13_1_0_0 <= 0
 inactive_no_flow_13_2_0_0: flow_13_2_0_0 - 1000 edge_13_2_0_0 <= 0
 inactive_no_flow_13_3_0_0: flow_13_3_0_0 - 1000 edge_13_3_0_0 <= 0
 inactive_no_flow_13_4_0_0: flow_13_4_0_0 - 1000 edge_13_4_0_0 <= 0
 inactive_no_flow_13_5_0_0: flow_13_5_0_0 - 1000 edge_13_5_0_0 <= 0
 inactive_no_flow_13_6_0_0: flow_13_6_0_0 - 1000 edge_13_6_0_0 <= 0
 inactive_no_flow_13_7_0_0: flow_13_7_0_0 - 1000 edge_13_7_0_0 <= 0
 inactive_no_flow_13_8_0_0: flow_13_8_0_0 - 1000 edge_13_8_0_0 <= 0
 inactive_no_flow_13_9_0_0: flow_13_9_0_0 - 1000 edge_13_9_0_0 <= 0
 inactive_no_flow_13_10_0_0: flow_13_10_0_0 - 1000 edge_13_10_0_0 <= 0
 inactive_no_flow_13_11_0_0: flow_13_11_0_0 - 1000 edge_13_11_0_0 <= 0
 inactive_no_flow_13_12_0_0: flow_13_12_0_0 - 1000 edge_13_12_0_0 <= 0
 inactive_no_flow_13_14_0_0: flow_13_14_0_0 - 1000 edge_13_14_0_0 <= 0
 inactive_no_flow_13_15_0_0: flow_13_15_0_0 - 1000 edge_13_15_0_0 <= 0
 inactive_no_flow_13_16_0_0: flow_13_16_0_0 - 1000 edge_13_16_0_0 <= 0
 inactive_no_flow_13_17_0_0: flow_13_17_0_0 - 1000 edge_13_17_0_0 <= 0
 inactive_no_flow_14_12_0_0: flow_14_12_0_0 - 1000 edge_14_12_0_0 <= 0
 inactive_no_flow_14_15_0_0: flow_14_15_0_0 - 1000 edge_14_15_0_0 <= 0
 inactive_no_flow_14_16_0_0: flow_14_16_0_0 - 1000 edge_14_16_0_0 <= 0
 inactive_no_flow_14_17_0_0: flow_14_17_0_0 - 1000 edge_14_17_0_0 <= 0
 inactive_no_flow_15_8_0_0: flow_15_8_0_0 - 1000 edge_15_8_0_0 <= 0
 inactive_no_flow_15_11_0_0: flow_15_11_0_0 - 1000 edge_15_11_0_0 <= 0
 inactive_no_flow_15_12_0_0: flow_15_12_0_0 - 1000 edge_15_12_0_0 <= 0
 inactive_no_flow_15_13_0_0: flow_15_13_0_0 - 1000 edge_15_13_0_0 <= 0
 inactive_no_flow_15_14_0_0: flow_15_14_0_0 - 1000 edge_15_14_0_0 <= 0
 inactive_no_flow_15_16_0_0: flow_15_16_0_0 - 1000 edge_15_16_0_0 <= 0
 inactive_no_flow_16_3_0_0: flow_16_3_0_0 - 1000 edge_16_3_0_0 <= 0
 inactive_no_flow_16_4_0_0: flow_16_4_0_0 - 1000 edge_16_4_0_0 <= 0
 inactive_no_flow_16_5_0_0: flow_16_5_0_0 - 1000 edge_16_5_0_0 <= 0
 inactive_no_flow_16_6_0_0: flow_16_6_0_0 - 1000 edge_16_6_0_0 <= 0
 inactive_no_flow_16_7_0_0: flow_16_7_0_0 - 1000 edge_16_7_0_0 <= 0
 inactive_no_flow_16_8_0_0: flow_16_8_0_0 - 1000 edge_16_8_0_0 <= 0
 inactive_no_flow_16_10_0_0: flow_16_10_0_0 - 1000 edge_16_10_0_0 <= 0
 inactive_no_flow_16_11_0_0: flow_16_11_0_0 - 1000 edge_16_11_0_0 <= 0
 inactive_no_flow_16_12_0_0: flow_16_12_0_0 - 1000 edge_16_12_0_0 <= 0
 inactive_no_flow_16_13_0_0: flow_16_13_0_0 - 1000 edge_16_13_0_0 <= 0
 inactive_no_flow_16_14_0_0: flow_16_14_0_0 - 1000 edge_16_14_0_0 <= 0
 inactive_no_flow_16_15_0_0: flow_16_15_0_0 - 1000 edge_16_15_0_0 <= 0
 inactive_no_flow_16_16_0_0: flow_16_16_0_0 - 1000 edge_16_16_0_0 <= 0
 inactive_no_flow_16_17_0_0: flow_16_17_0_0 - 1000 edge_16_17_0_0 <= 0
 inactive_no_flow_17_16_0_0: flow_17_16_0_0 - 1000 edge_17_16_0_0 <= 0
Bounds
Binaries
 edge_0_1_0_0 edge_0_2_0_0 edge_0_3_0_0 edge_0_4_0_0 edge_0_5_0_0
 edge_0_6_0_0 edge_0_7_0_0 edge_0_8_0_0 edge_0_9_0_0 edge_0_10_0_0
 edge_0_11_0_0 edge_0_12_0_0 edge_0_13_0_0 edge_0_15_0_0 edge_0_16_0_0
 edge_1_2_0_0 edge_1_4_0_0 edge_1_6_0_0 edge_1_8_0_0 edge_2_1_0_0
 edge_2_3_0_0 edge_2_4_0_0 edge_2_6_0_0 edge_2_7_0_0 edge_2_8_0_0
 edge_2_9_0_0 edge_2_10_0_0 edge_2_11_0_0 edge_2_12_0_0 edge_2_13_0_0
 edge_2_14_0_0 edge_2_16_0_0 edge_3_1_0_0 edge_3_4_0_0 edge_3_5_0_0
 edge_3_6_0_0 edge_3_8_0_0 edge_3_9_0_0 edge_3_11_0_0 edge_3_12_0_0
 edge_3_13_0_0 edge_3_15_0_0 edge_3_16_0_0 edge_3_17_0_0 edge_4_1_0_0
 edge_4_2_0_0 edge_4_3_0_0 edge_4_5_0_0 edge_4_6_0_0 edge_4_7_0_0
 edge_4_8_0_0 edge_4_9_0_0 edge_4_10_0_0 edge_4_11_0_0 edge_4_12_0_0
 edge_4_13_0_0 edge_4_14_0_0 edge_4_16_0_0 edge_4_17_0_0 edge_5_3_0_0
 edge_5_4_0_0 edge_5_6_0_0 edge_5_7_0_0 edge_5_8_0_0 edge_5_9_0_0
 edge_5_10_0_0 edge_5_11_0_0 edge_5_12_0_0 edge_5_13_0_0 edge_5_15_0_0
 edge_5_16_0_0 edge_5_17_0_0 edge_6_1_0_0 edge_6_2_0_0 edge_6_3_0_0
 edge_6_4_0_0 edge_6_5_0_0 edge_6_7_0_0 edge_6_8_0_0 edge_6_9_0_0
 edge_6_10_0_0 edge_6_11_0_0 edge_6_13_0_0 edge_6_14_0_0 edge_6_16_0_0
 edge_6_17_0_0 edge_7_1_0_0 edge_7_2_0_0 edge_7_3_0_0 edge_7_4_0_0
 edge_7_5_0_0 edge_7_6_0_0 edge_7_8_0_0 edge_7_9_0_0 edge_7_10_0_0
 edge_7_11_0_0 edge_7_12_0_0 edge_7_13_0_0 edge_7_14_0_0 edge_7_16_0_0
 edge_7_17_0_0 edge_8_4_0_0 edge_8_5_0_0 edge_8_6_0_0 edge_8_7_0_0
 edge_8_9_0_0 edge_8_10_0_0 edge_8_11_0_0 edge_9_4_0_0 edge_9_6_0_0
 edge_9_7_0_0 edge_9_8_0_0 edge_9_10_0_0 edge_9_11_0_0 edge_9_17_0_0
 edge_10_2_0_0 edge_10_4_0_0 edge_10_5_0_0 edge_10_6_0_0 edge_10_7_0_0
 edge_10_8_0_0 edge_10_9_0_0 edge_10_11_0_0 edge_10_12_0_0 edge_10_13_0_0
 edge_10_16_0_0 edge_10_17_0_0 edge_11_1_0_0 edge_11_2_0_0 edge_11_3_0_0
 edge_11_4_0_0 edge_11_5_0_0 edge_11_6_0_0 edge_11_7_0_0 edge_11_8_0_0
 edge_11_9_0_0 edge_11_10_0_0 edge_11_11_0_0 edge_11_12_0_0 edge_11_13_0_0
 edge_11_14_0_0 edge_11_15_0_0 edge_11_16_0_0 edge_11_17_0_0 edge_12_2_0_0
 edge_12_6_0_0 edge_12_7_0_0 edge_12_8_0_0 edge_12_10_0_0 edge_12_11_0_0
 edge_12_13_0_0 edge_12_14_0_0 edge_12_15_0_0 edge_12_16_0_0 edge_13_1_0_0
 edge_13_2_0_0 edge_13_3_0_0 edge_13_4_0_0 edge_13_5_0_0 edge_13_6_0_0
 edge_13_7_0_0 edge_13_8_0_0 edge_13_9_0_0 edge_13_10_0_0 edge_13_11_0_0
 edge_13_12_0_0 edge_13_14_0_0 edge_13_15_0_0 edge_13_16_0_0 edge_13_17_0_0
 edge_14_12_0_0 edge_14_15_0_0 edge_14_16_0_0 edge_14_17_0_0 edge_15_8_0_0
 edge_15_11_0_0 edge_15_12_0_0 edge_15_13_0_0 edge_15_14_0_0 edge_15_16_0_0
 edge_16_3_0_0 edge_16_4_0_0 edge_16_5_0_0 edge_16_6_0_0 edge_16_7_0_0
 edge_16_8_0_0 edge_16_10_0_0 edge_16_11_0_0 edge_16_12_0_0 edge_16_13_0_0
 edge_16_14_0_0 edge_16_15_0_0 edge_16_16_0_0 edge_16_17_0_0 edge_17_16_0_0
End
